
c turning on binary mode checking

c parsing input formula with 6236 variables and 26578 clauses

c finished parsing, read 19328 bytes from proof file

c detected empty clause; start verification via backward checking

c 1412 of 26578 clauses in core                            

c 53 of 4687 lemmas in core using 9293 resolution steps

c 0 RAT lemmas in core; 8 redundant literals in core lemmas

s VERIFIED

c verification time: 0.059 seconds
